# 62437
param k := 6;
param n := 50;
param s := 1;
set E :=  (0,49) (1,7) (1,24) (1,28) (1,33) (2,26) (3,30) (4,41) (5,17) (5,21) (6,10) (6,23) (6,31) (6,38) (8,11) (8,25) (9,37) (11,21) (12,18) (12,28) (13,15) (14,27) (14,35) (14,49) (15,28) (15,29) (15,41) (15,43) (16,17) (17,32) (18,34) (18,47) (19,39) (19,43) (20,44) (20,47) (20,48) (22,41) (22,49) (23,30) (23,36) (25,36) (26,47) (28,36) (29,38) (29,42) (34,37) (38,46) (40,43) (41,45) (43,45);